# 29438
param k := 6;
param n := 50;
param s := 1;
set E :=  (0,11) (0,20) (0,39) (1,5) (1,19) (1,25) (1,48) (2,33) (2,37) (3,14) (3,45) (3,46) (4,7) (4,16) (4,27) (4,31) (6,11) (6,19) (7,35) (8,13) (8,44) (9,35) (10,44) (12,42) (13,14) (13,15) (13,27) (13,29) (13,33) (14,18) (14,20) (17,30) (17,35) (17,45) (17,49) (20,42) (21,38) (22,36) (23,33) (24,32) (26,47) (28,33) (32,42) (33,43) (34,49) (36,37) (38,49) (40,44) (41,45) (44,47);